out/bwp_5_10_1_lp.out
14
1 4    4 5
0 6    1 9
3 6    4 9
0 10    1 13
3 10    4 13
1 0    4 3
0 0    0 0
0 1    0 1
2 6    2 6
2 7    2 7
